asp/input/in_60_30_9_2.lp
#const n = 60.
#const k = 30.
#const h = 9.
tile(1,30,21).
tile(2,28,7).
tile(3,23,6).
tile(4,22,6).
tile(5,15,27).
tile(6,6,4).
tile(7,16,26).
tile(8,2,5).
tile(9,11,21).
tile(10,21,5).
tile(11,1,15).
tile(12,24,19).
tile(13,2,1).
tile(14,9,7).
tile(15,22,21).
tile(16,6,7).
tile(17,1,5).
tile(18,17,30).
tile(19,18,25).
tile(20,22,8).
tile(21,11,17).
tile(22,4,13).
tile(23,8,29).
tile(24,1,28).
tile(25,25,3).
tile(26,15,21).
tile(27,27,3).
tile(28,25,4).
tile(29,15,18).
tile(30,8,18).
tile(31,20,10).
tile(32,24,1).
tile(33,23,19).
tile(34,19,10).
tile(35,24,12).
tile(36,22,30).
tile(37,5,1).
tile(38,9,1).
tile(39,26,15).
tile(40,3,18).
tile(41,26,22).
tile(42,14,12).
tile(43,13,25).
tile(44,29,21).
tile(45,17,28).
tile(46,6,30).
tile(47,3,26).
tile(48,12,14).
tile(49,19,29).
tile(50,27,11).
tile(51,19,29).
tile(52,17,8).
tile(53,11,2).
tile(54,8,15).
tile(55,13,7).
tile(56,22,26).
tile(57,26,16).
tile(58,17,27).
tile(59,7,15).
tile(60,3,26).
