instances/in_60_30_9_2.dzn
n = 60;
k = 30;
h = 9;
tiles = array2d(1..n, 1..2,
[ 30,21
, 28,7
, 23,6
, 22,6
, 15,27
, 6,4
, 16,26
, 2,5
, 11,21
, 21,5
, 1,15
, 24,19
, 2,1
, 9,7
, 22,21
, 6,7
, 1,5
, 17,30
, 18,25
, 22,8
, 11,17
, 4,13
, 8,29
, 1,28
, 25,3
, 15,21
, 27,3
, 25,4
, 15,18
, 8,18
, 20,10
, 24,1
, 23,19
, 19,10
, 24,12
, 22,30
, 5,1
, 9,1
, 26,15
, 3,18
, 26,22
, 14,12
, 13,25
, 29,21
, 17,28
, 6,30
, 3,26
, 12,14
, 19,29
, 27,11
, 19,29
, 17,8
, 11,2
, 8,15
, 13,7
, 22,26
, 26,16
, 17,27
, 7,15
, 3,26
]);